979.96,57.78,69.25
1025.35,55.23,66.19
977.11,57.95,69.45
1071.37,52.85,63.34
953.93,59.36,71.14
1060.58,53.39,63.99
1134.26,49.92,59.83
1083.27,52.27,62.65
1067.15,53.06,63.59
1055.14,53.67,64.32
1113.88,50.84,60.93
1072.83,52.78,63.26
966.86,58.57,70.19
891.08,63.55,76.16
1047.34,54.07,64.8
1074.92,52.68,63.14
1165.49,48.59,58.23
1080.67,52.4,62.8
1123.0,50.42,60.43
1011.55,55.98,67.09
